Traveling Salesman Problem/TSP_generados/Aleatorio1620390965_11.tsp
NAME: Aleatorio1620390965_11.tsp
COMMENT: Randomly generated scenario
TYPE: TSP
DIMENSION: 11
EDGE_WEIGHT_TYPE: ATT
NODE_COORD_SECTION
1 29.28 39.87
2 11.06 18.76
3 31.75 45.63
4 26.44 25.95
5 28.62 47.63
6 5.43 45.27
7 46.42 42.86
8 4.82 4.63
9 23.38 19.03
10 25.23 33.09
11 0.57 44.37
