Traveling Salesman Problem/TSP_generados/Aleatorio1620390965_11.opt.tour
NAME: Aleatorio1620390965_11.opt.tour
COMMENT: Optimal solution for Aleatorio1620390965_11 (153.6133561060271)
TYPE: TOUR
DIMENSION: 11
TOUR_SECTION
1 7 3 5 6 11 2 8 9 4 10
-1
EOF
